presolving:
(round 1, fast)       177 del vars, 368 del conss, 0 add conss, 13236 chg bounds, 6536 chg sides, 13222 chg coeffs, 0 upgd conss, 0 impls, 546 clqs
(round 2, fast)       178 del vars, 395 del conss, 0 add conss, 13236 chg bounds, 6536 chg sides, 13236 chg coeffs, 0 upgd conss, 0 impls, 546 clqs
   (0.3s) running MILP presolver
   (0.4s) MILP presolver found nothing
(round 3, exhaustive) 179 del vars, 408 del conss, 0 add conss, 13236 chg bounds, 6536 chg sides, 13236 chg coeffs, 7219 upgd conss, 0 impls, 533 clqs
   (1.4s) probing cycle finished: starting next cycle
   (1.6s) symmetry computation started: requiring (bin +, int -, cont +), (fixed: bin -, int +, cont -)
   (1.8s) no symmetry present
presolving (4 rounds: 4 fast, 2 medium, 2 exhaustive):
 386 deleted vars, 1116 deleted constraints, 0 added constraints, 13236 tightened bounds, 0 added holes, 6536 changed sides, 13236 changed coefficients
 13298 implications, 0 cliques
presolved problem has 13244 variables (172 bin, 0 int, 0 impl, 13072 cont) and 20426 constraints
   6536 constraints of type <varbound>
  13890 constraints of type <linear>
Presolving Time: 2.10

 time | node  | left  |LP iter|LP it/n|mem/heur|mdpt |vars |cons |rows |cuts |sepa|confs|strbr|  dualbound   | primalbound  |  gap   | compl. 
p 2.7s|     1 |     0 |   241 |     - |   locks|   0 |  13k|  20k|  20k|   0 |  0 |   0 |   0 | 3.027336e+05 | 2.874401e+07 |9394.82%| unknown
i 2.7s|     1 |     0 |   241 |     - |  oneopt|   0 |  13k|  20k|  20k|   0 |  0 |   0 |   0 | 3.027336e+05 | 1.552736e+07 |5029.05%| unknown
  3.0s|     1 |     0 |   483 |     - |   135M |   0 |  13k|  20k|  20k|   0 |  0 |   0 |   0 | 1.103925e+07 | 1.552736e+07 |  40.66%| unknown
  3.4s|     1 |     0 |   531 |     - |   139M |   0 |  13k|  20k|  20k|  39 |  1 |   0 |   0 | 1.149143e+07 | 1.552736e+07 |  35.12%| unknown
  3.6s|     1 |     0 |   563 |     - |   141M |   0 |  13k|  20k|  20k|  53 |  2 |   0 |   0 | 1.181658e+07 | 1.552736e+07 |  31.40%| unknown
  3.9s|     1 |     0 |   712 |     - |   144M |   0 |  13k|  20k|  20k| 122 |  3 |   0 |   0 | 1.331268e+07 | 1.552736e+07 |  16.64%| unknown
  4.9s|     1 |     0 |   847 |     - |   147M |   0 |  13k|  20k|  20k| 178 |  4 |   0 |   0 | 1.374353e+07 | 1.552736e+07 |  12.98%| unknown
  5.5s|     1 |     0 |   999 |     - |   150M |   0 |  13k|  20k|  20k| 220 |  5 |   0 |   0 | 1.416312e+07 | 1.552736e+07 |   9.63%| unknown
  6.0s|     1 |     0 |  1059 |     - |   152M |   0 |  13k|  20k|  20k| 236 |  6 |   0 |   0 | 1.422175e+07 | 1.552736e+07 |   9.18%| unknown
  6.6s|     1 |     0 |  1130 |     - |   155M |   0 |  13k|  20k|  20k| 245 |  7 |   0 |   0 | 1.427587e+07 | 1.552736e+07 |   8.77%| unknown
  7.3s|     1 |     0 |  1255 |     - |   158M |   0 |  13k|  20k|  20k| 272 |  8 |   0 |   0 | 1.444653e+07 | 1.552736e+07 |   7.48%| unknown
  8.1s|     1 |     0 |  1310 |     - |   161M |   0 |  13k|  20k|  20k| 286 |  9 |   0 |   0 | 1.452126e+07 | 1.552736e+07 |   6.93%| unknown
  8.6s|     1 |     0 |  1340 |     - |   163M |   0 |  13k|  20k|  20k| 298 | 10 |   0 |   0 | 1.454657e+07 | 1.552736e+07 |   6.74%| unknown
  9.5s|     1 |     0 |  1456 |     - |   165M |   0 |  13k|  20k|  20k| 316 | 11 |   0 |   0 | 1.462030e+07 | 1.552736e+07 |   6.20%| unknown
 10.2s|     1 |     0 |  1605 |     - |   169M |   0 |  13k|  20k|  20k| 336 | 12 |   0 |   0 | 1.470617e+07 | 1.552736e+07 |   5.58%| unknown
 time | node  | left  |LP iter|LP it/n|mem/heur|mdpt |vars |cons |rows |cuts |sepa|confs|strbr|  dualbound   | primalbound  |  gap   | compl. 
 10.5s|     1 |     0 |  1672 |     - |   171M |   0 |  13k|  20k|  20k| 350 | 13 |   0 |   0 | 1.473491e+07 | 1.552736e+07 |   5.38%| unknown
 10.8s|     1 |     0 |  1734 |     - |   174M |   0 |  13k|  20k|  20k| 362 | 14 |   0 |   0 | 1.474435e+07 | 1.552736e+07 |   5.31%| unknown
 11.1s|     1 |     0 |  1806 |     - |   176M |   0 |  13k|  20k|  20k| 370 | 15 |   0 |   0 | 1.475062e+07 | 1.552736e+07 |   5.27%| unknown
 11.4s|     1 |     0 |  1847 |     - |   178M |   0 |  13k|  20k|  20k| 376 | 16 |   0 |   0 | 1.475711e+07 | 1.552736e+07 |   5.22%| unknown
 11.6s|     1 |     0 |  1881 |     - |   180M |   0 |  13k|  20k|  20k| 380 | 17 |   0 |   0 | 1.476163e+07 | 1.552736e+07 |   5.19%| unknown
 11.9s|     1 |     0 |  1934 |     - |   182M |   0 |  13k|  20k|  20k| 385 | 18 |   0 |   0 | 1.476401e+07 | 1.552736e+07 |   5.17%| unknown
 12.1s|     1 |     0 |  1950 |     - |   185M |   0 |  13k|  20k|  20k| 390 | 19 |   0 |   0 | 1.476441e+07 | 1.552736e+07 |   5.17%| unknown
 12.3s|     1 |     0 |  1998 |     - |   187M |   0 |  13k|  20k|  20k| 399 | 20 |   0 |   0 | 1.477171e+07 | 1.552736e+07 |   5.12%| unknown
 12.5s|     1 |     0 |  2072 |     - |   187M |   0 |  13k|  20k|  20k| 409 | 21 |   0 |   0 | 1.477528e+07 | 1.552736e+07 |   5.09%| unknown
 12.7s|     1 |     0 |  2153 |     - |   187M |   0 |  13k|  20k|  20k| 416 | 22 |   0 |   0 | 1.478099e+07 | 1.552736e+07 |   5.05%| unknown
 12.9s|     1 |     0 |  2204 |     - |   187M |   0 |  13k|  20k|  20k| 430 | 23 |   0 |   0 | 1.478221e+07 | 1.552736e+07 |   5.04%| unknown
 13.1s|     1 |     0 |  2274 |     - |   188M |   0 |  13k|  20k|  20k| 434 | 24 |   0 |   0 | 1.479334e+07 | 1.552736e+07 |   4.96%| unknown
 13.3s|     1 |     0 |  2318 |     - |   188M |   0 |  13k|  20k|  20k| 440 | 25 |   0 |   0 | 1.479393e+07 | 1.552736e+07 |   4.96%| unknown
 13.4s|     1 |     0 |  2332 |     - |   188M |   0 |  13k|  20k|  20k| 442 | 26 |   0 |   0 | 1.479415e+07 | 1.552736e+07 |   4.96%| unknown
 13.6s|     1 |     0 |  2368 |     - |   188M |   0 |  13k|  20k|  20k| 446 | 27 |   0 |   0 | 1.479468e+07 | 1.552736e+07 |   4.95%| unknown
 time | node  | left  |LP iter|LP it/n|mem/heur|mdpt |vars |cons |rows |cuts |sepa|confs|strbr|  dualbound   | primalbound  |  gap   | compl. 
 13.8s|     1 |     0 |  2414 |     - |   188M |   0 |  13k|  20k|  20k| 455 | 28 |   0 |   0 | 1.479505e+07 | 1.552736e+07 |   4.95%| unknown
 14.0s|     1 |     0 |  2453 |     - |   188M |   0 |  13k|  20k|  20k| 458 | 29 |   0 |   0 | 1.479528e+07 | 1.552736e+07 |   4.95%| unknown
 14.3s|     1 |     0 |  2562 |     - |   189M |   0 |  13k|  20k|  20k| 464 | 30 |   0 |   0 | 1.479584e+07 | 1.552736e+07 |   4.94%| unknown
 14.6s|     1 |     0 |  2692 |     - |   189M |   0 |  13k|  20k|  20k| 467 | 31 |   0 |   0 | 1.479631e+07 | 1.552736e+07 |   4.94%| unknown
 14.8s|     1 |     0 |  2747 |     - |   189M |   0 |  13k|  20k|  20k| 471 | 32 |   0 |   0 | 1.479712e+07 | 1.552736e+07 |   4.93%| unknown
 15.0s|     1 |     0 |  2836 |     - |   189M |   0 |  13k|  20k|  20k| 477 | 33 |   0 |   0 | 1.479807e+07 | 1.552736e+07 |   4.93%| unknown
 15.3s|     1 |     0 |  2863 |     - |   189M |   0 |  13k|  20k|  20k| 481 | 34 |   0 |   0 | 1.479848e+07 | 1.552736e+07 |   4.93%| unknown
r15.6s|     1 |     0 |  3331 |     - |intshift|   0 |  13k|  20k|  20k| 481 | 34 |   0 |   0 | 1.479848e+07 | 1.546470e+07 |   4.50%| unknown
L23.3s|     1 |     0 | 15464 |     - |    rens|   0 |  13k|  20k|  20k| 481 | 34 |   0 |   0 | 1.479848e+07 | 1.481795e+07 |   0.13%| unknown
 23.8s|     1 |     0 | 15464 |     - |   192M |   0 |  13k|  20k|  20k| 481 | 34 |   0 |   0 | 1.479848e+07 | 1.481795e+07 |   0.13%| unknown
 24.0s|     1 |     0 | 15635 |     - |   194M |   0 |  13k|  20k|  18k| 481 | 34 |   0 |   0 | 1.479938e+07 | 1.481795e+07 |   0.13%| unknown
 24.1s|     1 |     0 | 15667 |     - |   194M |   0 |  13k|  20k|  13k| 483 | 35 |   0 |   0 | 1.479971e+07 | 1.481795e+07 |   0.12%| unknown
 24.1s|     1 |     0 | 15680 |     - |   194M |   0 |  13k|  20k|  13k| 485 | 36 |   0 |   0 | 1.479974e+07 | 1.481795e+07 |   0.12%| unknown
 24.2s|     1 |     0 | 15680 |     - |   194M |   0 |  13k|  13k|  13k| 485 | 36 |   0 |   0 | 1.479974e+07 | 1.481795e+07 |   0.12%| unknown
 24.2s|     1 |     0 | 15706 |     - |   194M |   0 |  13k|  13k|  13k| 489 | 37 |   0 |   0 | 1.479977e+07 | 1.481795e+07 |   0.12%| unknown
 time | node  | left  |LP iter|LP it/n|mem/heur|mdpt |vars |cons |rows |cuts |sepa|confs|strbr|  dualbound   | primalbound  |  gap   | compl. 
 24.3s|     1 |     0 | 15737 |     - |   194M |   0 |  13k|  13k|  13k| 491 | 38 |   0 |   0 | 1.479979e+07 | 1.481795e+07 |   0.12%| unknown
(run 1, node 1) restarting after 64 global fixings of integer variables

(restart) converted 306 cuts from the global cut pool into linear constraints

presolving:
(round 1, fast)       4890 del vars, 79 del conss, 0 add conss, 0 chg bounds, 266 chg sides, 532 chg coeffs, 0 upgd conss, 13298 impls, 0 clqs
   (24.4s) running MILP presolver
   (24.4s) MILP presolver (3 rounds): 0 aggregations, 0 fixings, 74 bound changes
(round 2, medium)     4890 del vars, 79 del conss, 0 add conss, 74 chg bounds, 266 chg sides, 569 chg coeffs, 0 upgd conss, 13298 impls, 0 clqs
(round 3, fast)       4890 del vars, 79 del conss, 0 add conss, 74 chg bounds, 303 chg sides, 606 chg coeffs, 0 upgd conss, 13298 impls, 0 clqs
(round 4, exhaustive) 4890 del vars, 154 del conss, 0 add conss, 74 chg bounds, 303 chg sides, 606 chg coeffs, 0 upgd conss, 13298 impls, 0 clqs
(round 5, fast)       4964 del vars, 250 del conss, 0 add conss, 74 chg bounds, 303 chg sides, 606 chg coeffs, 0 upgd conss, 13298 impls, 0 clqs
(round 6, fast)       4964 del vars, 302 del conss, 0 add conss, 74 chg bounds, 303 chg sides, 606 chg coeffs, 0 upgd conss, 13298 impls, 0 clqs
presolving (7 rounds: 7 fast, 3 medium, 2 exhaustive):
 4964 deleted vars, 302 deleted constraints, 0 added constraints, 74 tightened bounds, 0 added holes, 303 changed sides, 606 changed coefficients
 13298 implications, 0 cliques
presolved problem has 8280 variables (108 bin, 0 int, 0 impl, 8172 cont) and 13147 constraints
   4104 constraints of type <varbound>
   9043 constraints of type <linear>
Presolving Time: 2.22
transformed 2/4 original solutions to the transformed problem space

 time | node  | left  |LP iter|LP it/n|mem/heur|mdpt |vars |cons |rows |cuts |sepa|confs|strbr|  dualbound   | primalbound  |  gap   | compl. 
 25.6s|     1 |     0 | 18699 |     - |   192M |   0 |8280 |  13k|  13k|   0 |  0 |   0 |   0 | 1.479979e+07 | 1.481795e+07 |   0.12%| unknown
 25.6s|     1 |     0 | 18699 |     - |   192M |   0 |8280 |  13k|  13k|   0 |  0 |   0 |   0 | 1.479979e+07 | 1.481795e+07 |   0.12%| unknown
 25.7s|     1 |     0 | 18780 |     - |   194M |   0 |8280 |  13k|  12k|   2 |  1 |   0 |   0 | 1.480002e+07 | 1.481795e+07 |   0.12%| unknown
 25.9s|     1 |     0 | 18982 |     - |   196M |   0 |8280 |  13k|  12k|   4 |  2 |   0 |   0 | 1.480590e+07 | 1.481795e+07 |   0.08%| unknown
 26.0s|     1 |     0 | 18986 |     - |   197M |   0 |8280 |  13k|  12k|   5 |  3 |   0 |   0 | 1.480591e+07 | 1.481795e+07 |   0.08%| unknown
 26.1s|     1 |     0 | 18986 |     - |   198M |   0 |8280 |  12k|  12k|   5 |  5 |   0 |   0 | 1.480591e+07 | 1.481795e+07 |   0.08%| unknown
 26.7s|     1 |     0 | 19521 |     - |   199M |   0 |8280 |  12k|  12k|   5 |  7 |  10k|   1 | 1.481014e+07 | 1.481795e+07 |   0.05%| unknown
 26.7s|     1 |     0 | 19574 |     - |   199M |   0 |8280 |  12k|  12k|   6 |  8 |  10k|   1 | 1.481113e+07 | 1.481795e+07 |   0.05%| unknown
 26.8s|     1 |     0 | 19579 |     - |   199M |   0 |8280 |  12k|  12k|   7 |  9 |  10k|   1 | 1.481118e+07 | 1.481795e+07 |   0.05%| unknown
 26.8s|     1 |     0 | 19584 |     - |   199M |   0 |8280 |  12k|  12k|   8 | 10 |  10k|   1 | 1.481119e+07 | 1.481795e+07 |   0.05%| unknown
 27.0s|     1 |     0 | 19652 |     - |   199M |   0 |8280 |  12k|  12k|   8 | 10 |  13k|   2 | 1.481180e+07 | 1.481795e+07 |   0.04%| unknown
 27.1s|     1 |     0 | 19740 |     - |   201M |   0 |8280 |  12k|  12k|  14 | 11 |  13k|   2 | 1.481500e+07 | 1.481795e+07 |   0.02%| unknown
 27.2s|     1 |     0 | 19744 |     - |   201M |   0 |8280 |  12k|  12k|  14 | 12 |  20k|   7 | 1.481795e+07 | 1.481795e+07 |   0.00%| unknown

SCIP Status        : problem is solved [optimal solution found]
Solving Time (sec) : 27.21
Solving Nodes      : 1 (total of 2 nodes in 2 runs)
Primal Bound       : +1.48179520550726e+07 (5 solutions)
Dual Bound         : +1.48179520550726e+07
Gap                : 0.00 %
Solve Status: optimal
Solve Time: 27.22 seconds
